Instance name : lrc105
Authors       : Geir Hasle, Oddvar Kloster
Date          : 08.08.2003 12:11:08
Reference     : Chapter in G. Hasle, K-A Lie, E. Quak (eds): Geometric Modelling, Numerical Simulation, and Optimization. ISBN 978-3-540-68782-5, Springer 2007.
Solution
Route  1 : 33 76 18 48 21 25 24 105
Route  2 : 63 62 67 84 51 85 89 102
Route  3 : 65 83 19 23 22 20 49 77
Route  4 : 90 53 66 56 91 106
Route  5 : 98 47 16 103 15 87 59 97 75 58
Route  6 : 42 61 8 6 46 4 107 3 1 100
Route  7 : 72 71 81 41 54 96 94 93
Route  8 : 29 27 26 30 28 32 31 34 50 80
Route  9 : 39 36 44 38 40 37 35 104 43 70
Route  10 : 92 95 64 99 52 86 57 74
Route  11 : 2 45 5 7 79 55 101 68
Route  12 : 82 12 14 11 9 10 13 17
Route  13 : 69 88 78 108 73 60
